2056, 0, 0, 48, 2
2057, 0, 1, 50, 0
2058, 0, 2, 53, 3
2059, 0, 3, 95, 1
2060, 0, 4, 73, 4
2061, 1, 0, 41, 3
2062, 1, 1, 32, 0
2063, 1, 2, 97, 1
2064, 1, 3, 37, 2
2065, 1, 4, 45, 4
2066, 2, 0, 31, 3
2067, 2, 1, 84, 0
2068, 2, 2, 84, 1
2069, 2, 3, 59, 4
2070, 2, 4, 34, 2
2071, 3, 0, 40, 3
2072, 3, 1, 95, 4
2073, 3, 2, 31, 2
2074, 3, 3, 56, 0
2075, 3, 4, 49, 1
